p edge 20 46 8
v 2 5 8
v 3 1 11 13
v 1 12
v 2 4 16
v 2 6 15
v 1 17
v 6 3 7 9 10 18 19
v 3 2 14 20
e 1 17
e 2 17
e 2 18
e 2 19
e 2 20
e 3 4
e 3 6
e 3 7
e 3 8
e 3 9
e 3 11
e 3 13
e 3 14
e 4 11
e 4 15
e 4 17
e 5 9
e 5 13
e 5 16
e 6 7
e 6 8
e 6 16
e 6 17
e 7 8
e 7 10
e 7 16
e 7 18
e 8 10
e 8 20
e 9 12
e 9 13
e 9 18
e 9 20
e 10 17
e 11 19
e 12 18
e 13 15
e 13 16
e 14 18
e 14 19
e 15 16
e 15 20
e 16 19
e 16 20
e 17 19
e 19 20
